TOUR:
 1 93 28 67 58 61 25 81 69 64 40 54 2 44 50 73 68 85 82 95 13 76 33 37 5 39 30 96 78 52 48 100 41 71 14 3 43 46 29 34 83 55 9 87 51 57 7 12 27 35 86 20 62 60 77 23 98 45 91 47 32 11 15 17 59 74 21 72 84 10 90 19 53 79 18 24 38 36 99 94 88 16 22 70 66 26 65 4 97 56 80 31 89 42 8 92 75 49 6 63
COST = 22437
